DATASET/PUBLIC/TSPGEN/11
NAME : 11
COMMENT : tspgen
TYPE : TSP
DIMENSION : 11
EDGE_WEIGHT_TYPE : EUC_2D
NODE_COORD_SECTION
1 1977791606 9465379237
2 472852055 -5065517568
3 5519162891 3601596087
4 9294986571 5793477101
5 5461115208 7113256533
6 8226752290 3855232289
7 5250927610 4984534638
8 3182842587 10396969359
9 3264757673 9636110132
10 15834192465 1992890531
11 1727107380 6005501843
EOF