DATASET/PUBLIC/TSPGEN/11.tsp
NAME : 11
COMMENT : tspgen
TYPE : TSP
DIMENSION : 11
EDGE_WEIGHT_TYPE : EUC_2D
NODE_COORD_SECTION
1 10019777 10094653
2 10004728 9949344
3 10055191 10036015
4 10092949 10057934
5 10054611 10071132
6 10082267 10038552
7 10052509 10049845
8 10031828 10103969
9 10032647 10096361
10 10158341 10019928
11 10017271 10060055
EOF